(set-logic QF_S)
(declare-fun var0 () String)
(declare-fun var1 () String)
(declare-fun var2 () String)
(declare-fun var3 () String)
(declare-fun var4 () Int)
(declare-fun var5 () Int)
(declare-fun var6 () Int)
(declare-fun var7 () Int)
(assert (str.suffixof var0 var1))
(assert (str.prefixof var2 "$zC]BA:r7F"))
(assert (str.prefixof (str.at var3 var4) (str.substr var0 var5 var6)))
(assert (<= (str.len var3) (str.len (str.substr var2 var7 var5))))
(check-sat)